30 61
28
9 24 0 20
9 8 21 5
9 11 15 50
9 17 17 13
4 24 9 22
4 8 13 22
6 1 9 46
1 5 0 44
4 17 2 3
3 6 18 7
3 5 6 15
12 5 18 0
12 13 6 0
14 14 13 30
2 14 28 15
2 2 13 44
8 3 1 44
8 9 9 13
12 14 3 47
2 12 0 3
6 3 0 0
9 6 15 44
2 5 0 15
2 13 26 16
3 18 27 43
3 14 27 29
3 16 24 45
3 12 0 49
